p cnf 26 67
a 19 7 0
e 1 2 3 4 5 6 8 9 10 11 12 13 14 15 16 17 18 20 21 22 23 24 25 26 0
-3 -1 0
-3 -2 0
1 2 3 0
-5 3 0
-5 -4 0
-3 4 5 0
-4 7 -8 0
4 -7 -8 0
-4 -7 8 0
4 7 8 0
-8 -7 -9 0
8 7 -9 0
-8 7 9 0
8 -7 9 0
-10 6 0
-10 9 0
-6 -9 10 0
12 11 0
12 -7 0
-11 7 -12 0
1 13 -14 0
-1 -13 -14 0
1 -13 14 0
-1 13 14 0
-16 -15 0
-16 13 0
15 -13 16 0
17 -13 0
17 16 0
13 -16 -17 0
18 16 0
18 17 0
-16 -17 -18 0
19 -14 0
19 18 0
14 -18 -19 0
20 -12 0
20 -19 0
12 19 -20 0
-21 -10 0
-21 20 0
10 -20 21 0
-5 21 -22 0
5 -21 -22 0
-5 -21 22 0
5 21 22 0
13 -15 -23 0
-13 15 -23 0
13 15 23 0
-13 -15 23 0
-24 -22 0
-24 -23 0
22 23 24 0
-8 -2 -25 0
8 2 -25 0
-8 2 25 0
8 -2 25 0
-26 -24 0
-26 -25 0
24 25 26 0
8 6 -14 26 0
-23 8 2 16 3 -18 -9 0
3 23 -1 18 0
4 15 2 17 0
-23 24 2 -13 21 10 0
-14 -20 25 17 -10 0
26 0
